nNurses = 94;
nHours = 29;
minHours = 10;
maxHours = 13;
maxConsec = 8;
maxPresence = 23;
demand = [28, 27, 24, 24, 28, 28, 28, 31, 27, 29, 26, 28, 23, 20, 22, 23, 25, 29, 31, 36, 40, 39, 37, 36, 33, 29, 25, 20, 21];
